p edge 1028 1003
e 1 2
e 1 3
e 1 4
e 1 5
e 1 6
e 1 7
e 1 8
e 1 9
e 1 10
e 1 11
e 1 12
e 1 13
e 1 14
e 1 15
e 1 16
e 1 17
e 1 18
e 1 19
e 1 20
e 1 21
e 1 22
e 1 23
e 1 24
e 1 25
e 1 26
e 1 27
e 1 28
e 1 29
e 1 30
e 1 31
e 1 32
e 1 33
e 1 34
e 1 35
e 1 36
e 1 37
e 1 38
e 1 39
e 1 40
e 1 41
e 1 42
e 1 43
e 1 44
e 45 46
e 45 47
e 45 48
e 45 49
e 45 50
e 45 51
e 45 52
e 45 53
e 45 54
e 45 55
e 45 56
e 45 57
e 45 58
e 45 59
e 45 60
e 45 61
e 45 62
e 45 63
e 45 64
e 45 65
e 45 66
e 45 67
e 45 68
e 45 69
e 45 70
e 45 71
e 45 72
e 45 73
e 45 74
e 45 75
e 45 76
e 45 77
e 45 78
e 45 79
e 45 80
e 45 81
e 45 82
e 83 84
e 83 85
e 83 86
e 83 87
e 83 88
e 83 89
e 83 90
e 83 91
e 83 92
e 83 93
e 83 94
e 83 95
e 83 96
e 83 97
e 83 98
e 83 99
e 83 100
e 83 101
e 83 102
e 83 103
e 83 104
e 83 105
e 83 106
e 83 107
e 83 108
e 83 109
e 83 110
e 111 112
e 111 113
e 111 114
e 111 115
e 111 116
e 111 117
e 111 118
e 111 119
e 111 120
e 111 121
e 111 122
e 111 123
e 111 124
e 111 125
e 111 126
e 111 127
e 111 128
e 111 129
e 111 130
e 111 131
e 111 132
e 111 133
e 111 134
e 111 135
e 111 136
e 111 137
e 111 138
e 111 139
e 111 140
e 111 141
e 111 142
e 111 143
e 111 144
e 111 145
e 111 146
e 111 147
e 111 148
e 111 149
e 111 150
e 111 151
e 111 152
e 111 153
e 111 154
e 111 155
e 111 156
e 111 157
e 111 158
e 111 159
e 111 160
e 111 161
e 111 162
e 111 163
e 111 164
e 111 165
e 111 166
e 111 167
e 111 168
e 111 169
e 111 170
e 111 171
e 111 172
e 111 173
e 111 174
e 111 175
e 111 176
e 111 177
e 111 178
e 179 180
e 179 181
e 179 182
e 179 183
e 179 184
e 179 185
e 179 186
e 179 187
e 179 188
e 179 189
e 179 190
e 179 191
e 179 192
e 179 193
e 179 194
e 179 195
e 179 196
e 179 197
e 179 198
e 179 199
e 179 200
e 179 201
e 179 202
e 179 203
e 179 204
e 179 205
e 179 206
e 179 207
e 179 208
e 179 209
e 179 210
e 179 211
e 179 212
e 179 213
e 179 214
e 179 215
e 179 216
e 179 217
e 179 218
e 179 219
e 179 220
e 179 221
e 179 222
e 179 223
e 179 224
e 179 225
e 179 226
e 179 227
e 179 228
e 179 229
e 179 230
e 179 231
e 179 232
e 179 233
e 179 234
e 179 235
e 179 236
e 179 237
e 179 238
e 179 239
e 179 240
e 241 242
e 241 243
e 241 244
e 241 245
e 241 246
e 241 247
e 241 248
e 241 249
e 241 250
e 241 251
e 241 252
e 241 253
e 241 254
e 241 255
e 241 256
e 241 257
e 241 258
e 241 259
e 241 260
e 241 261
e 241 262
e 241 263
e 241 264
e 241 265
e 241 266
e 241 267
e 241 268
e 241 269
e 241 270
e 241 271
e 241 272
e 241 273
e 241 274
e 241 275
e 241 276
e 241 277
e 241 278
e 241 279
e 241 280
e 241 281
e 241 282
e 241 283
e 241 284
e 241 285
e 241 286
e 241 287
e 241 288
e 241 289
e 241 290
e 241 291
e 292 293
e 292 294
e 292 295
e 292 296
e 292 297
e 292 298
e 292 299
e 292 300
e 292 301
e 292 302
e 292 303
e 292 304
e 292 305
e 292 306
e 292 307
e 292 308
e 292 309
e 292 310
e 292 311
e 292 312
e 292 313
e 292 314
e 292 315
e 292 316
e 292 317
e 292 318
e 292 319
e 292 320
e 292 321
e 292 322
e 292 323
e 292 324
e 292 325
e 292 326
e 292 327
e 292 328
e 292 329
e 292 330
e 292 331
e 292 332
e 292 333
e 292 334
e 292 335
e 336 337
e 336 338
e 336 339
e 336 340
e 336 341
e 336 342
e 336 343
e 336 344
e 336 345
e 336 346
e 336 347
e 336 348
e 336 349
e 336 350
e 336 351
e 336 352
e 336 353
e 336 354
e 336 355
e 336 356
e 336 357
e 336 358
e 336 359
e 336 360
e 336 361
e 336 362
e 336 363
e 336 364
e 336 365
e 336 366
e 336 367
e 336 368
e 336 369
e 336 370
e 336 371
e 336 372
e 336 373
e 336 374
e 336 375
e 336 376
e 336 377
e 336 378
e 336 379
e 336 380
e 381 382
e 381 383
e 381 384
e 381 385
e 381 386
e 381 387
e 381 388
e 381 389
e 381 390
e 381 391
e 381 392
e 381 393
e 381 394
e 381 395
e 381 396
e 381 397
e 381 398
e 381 399
e 381 400
e 381 401
e 381 402
e 381 403
e 381 404
e 381 405
e 381 406
e 381 407
e 381 408
e 381 409
e 381 410
e 381 411
e 381 412
e 381 413
e 381 414
e 381 415
e 381 416
e 381 417
e 381 418
e 381 419
e 381 420
e 381 421
e 381 422
e 381 423
e 381 424
e 381 425
e 381 426
e 381 427
e 381 428
e 429 430
e 429 431
e 429 432
e 429 433
e 429 434
e 429 435
e 429 436
e 429 437
e 429 438
e 429 439
e 429 440
e 429 441
e 429 442
e 429 443
e 429 444
e 429 445
e 429 446
e 429 447
e 429 448
e 429 449
e 429 450
e 429 451
e 429 452
e 429 453
e 429 454
e 429 455
e 429 456
e 429 457
e 429 458
e 429 459
e 429 460
e 429 461
e 429 462
e 463 464
e 463 465
e 463 466
e 463 467
e 463 468
e 463 469
e 463 470
e 463 471
e 463 472
e 463 473
e 463 474
e 463 475
e 463 476
e 463 477
e 463 478
e 463 479
e 463 480
e 463 481
e 463 482
e 463 483
e 484 485
e 484 486
e 484 487
e 484 488
e 484 489
e 484 490
e 484 491
e 484 492
e 484 493
e 484 494
e 484 495
e 484 496
e 484 497
e 484 498
e 484 499
e 484 500
e 484 501
e 484 502
e 484 503
e 484 504
e 505 506
e 505 507
e 505 508
e 505 509
e 505 510
e 505 511
e 505 512
e 505 513
e 505 514
e 505 515
e 505 516
e 505 517
e 518 519
e 518 520
e 518 521
e 518 522
e 518 523
e 518 524
e 518 525
e 518 526
e 518 527
e 518 528
e 518 529
e 518 530
e 518 531
e 518 532
e 518 533
e 518 534
e 518 535
e 518 536
e 518 537
e 518 538
e 518 539
e 518 540
e 518 541
e 518 542
e 518 543
e 518 544
e 518 545
e 518 546
e 518 547
e 518 548
e 518 549
e 518 550
e 518 551
e 518 552
e 518 553
e 518 554
e 518 555
e 518 556
e 518 557
e 518 558
e 518 559
e 518 560
e 518 561
e 518 562
e 518 563
e 518 564
e 518 565
e 518 566
e 518 567
e 518 568
e 518 569
e 518 570
e 518 571
e 518 572
e 518 573
e 518 574
e 518 575
e 518 576
e 518 577
e 518 578
e 518 579
e 518 580
e 518 581
e 582 583
e 582 584
e 582 585
e 582 586
e 582 587
e 582 588
e 582 589
e 582 590
e 582 591
e 582 592
e 582 593
e 582 594
e 582 595
e 582 596
e 582 597
e 582 598
e 599 600
e 599 601
e 599 602
e 599 603
e 599 604
e 599 605
e 599 606
e 599 607
e 599 608
e 599 609
e 599 610
e 599 611
e 599 612
e 599 613
e 599 614
e 599 615
e 599 616
e 599 617
e 599 618
e 599 619
e 599 620
e 599 621
e 599 622
e 599 623
e 599 624
e 599 625
e 599 626
e 599 627
e 628 629
e 628 630
e 628 631
e 628 632
e 628 633
e 628 634
e 628 635
e 628 636
e 628 637
e 628 638
e 628 639
e 628 640
e 628 641
e 628 642
e 628 643
e 628 644
e 628 645
e 628 646
e 628 647
e 628 648
e 628 649
e 628 650
e 628 651
e 628 652
e 628 653
e 628 654
e 628 655
e 628 656
e 628 657
e 628 658
e 628 659
e 628 660
e 628 661
e 628 662
e 628 663
e 628 664
e 628 665
e 628 666
e 628 667
e 628 668
e 628 669
e 628 670
e 628 671
e 628 672
e 628 673
e 628 674
e 628 675
e 628 676
e 628 677
e 628 678
e 679 680
e 679 681
e 679 682
e 679 683
e 679 684
e 679 685
e 679 686
e 679 687
e 679 688
e 679 689
e 679 690
e 679 691
e 679 692
e 679 693
e 679 694
e 679 695
e 679 696
e 679 697
e 679 698
e 679 699
e 679 700
e 679 701
e 679 702
e 679 703
e 679 704
e 679 705
e 679 706
e 679 707
e 679 708
e 679 709
e 679 710
e 679 711
e 679 712
e 679 713
e 679 714
e 679 715
e 679 716
e 717 718
e 717 719
e 717 720
e 717 721
e 717 722
e 717 723
e 717 724
e 717 725
e 717 726
e 717 727
e 717 728
e 717 729
e 717 730
e 717 731
e 717 732
e 733 734
e 733 735
e 733 736
e 733 737
e 733 738
e 733 739
e 733 740
e 733 741
e 733 742
e 733 743
e 733 744
e 733 745
e 733 746
e 733 747
e 733 748
e 733 749
e 733 750
e 733 751
e 733 752
e 733 753
e 733 754
e 733 755
e 733 756
e 733 757
e 733 758
e 733 759
e 733 760
e 733 761
e 733 762
e 733 763
e 733 764
e 733 765
e 733 766
e 733 767
e 733 768
e 733 769
e 733 770
e 733 771
e 733 772
e 733 773
e 733 774
e 775 776
e 775 777
e 775 778
e 775 779
e 775 780
e 775 781
e 775 782
e 775 783
e 775 784
e 775 785
e 775 786
e 775 787
e 775 788
e 775 789
e 775 790
e 775 791
e 775 792
e 775 793
e 775 794
e 775 795
e 775 796
e 775 797
e 775 798
e 775 799
e 775 800
e 775 801
e 775 802
e 775 803
e 775 804
e 775 805
e 775 806
e 775 807
e 775 808
e 775 809
e 775 810
e 811 812
e 811 813
e 811 814
e 811 815
e 811 816
e 811 817
e 811 818
e 811 819
e 811 820
e 811 821
e 811 822
e 811 823
e 811 824
e 811 825
e 811 826
e 811 827
e 811 828
e 811 829
e 811 830
e 811 831
e 811 832
e 811 833
e 811 834
e 811 835
e 811 836
e 811 837
e 811 838
e 811 839
e 811 840
e 811 841
e 811 842
e 811 843
e 811 844
e 811 845
e 811 846
e 811 847
e 811 848
e 811 849
e 811 850
e 811 851
e 811 852
e 853 854
e 853 855
e 853 856
e 853 857
e 853 858
e 853 859
e 853 860
e 853 861
e 853 862
e 853 863
e 853 864
e 853 865
e 853 866
e 853 867
e 853 868
e 853 869
e 853 870
e 853 871
e 853 872
e 853 873
e 853 874
e 853 875
e 853 876
e 853 877
e 853 878
e 853 879
e 853 880
e 853 881
e 853 882
e 853 883
e 853 884
e 853 885
e 853 886
e 853 887
e 853 888
e 853 889
e 853 890
e 853 891
e 853 892
e 853 893
e 853 894
e 853 895
e 853 896
e 853 897
e 853 898
e 853 899
e 853 900
e 853 901
e 853 902
e 903 904
e 903 905
e 903 906
e 903 907
e 903 908
e 903 909
e 903 910
e 903 911
e 903 912
e 903 913
e 903 914
e 903 915
e 903 916
e 903 917
e 903 918
e 903 919
e 903 920
e 903 921
e 903 922
e 903 923
e 903 924
e 903 925
e 903 926
e 903 927
e 903 928
e 903 929
e 903 930
e 903 931
e 903 932
e 903 933
e 903 934
e 903 935
e 903 936
e 903 937
e 903 938
e 903 939
e 903 940
e 903 941
e 903 942
e 903 943
e 903 944
e 903 945
e 903 946
e 903 947
e 903 948
e 903 949
e 903 950
e 903 951
e 903 952
e 903 953
e 903 954
e 903 955
e 903 956
e 903 957
e 903 958
e 903 959
e 903 960
e 903 961
e 962 963
e 962 964
e 962 965
e 962 966
e 962 967
e 962 968
e 962 969
e 962 970
e 962 971
e 962 972
e 962 973
e 962 974
e 962 975
e 962 976
e 962 977
e 962 978
e 962 979
e 962 980
e 962 981
e 962 982
e 962 983
e 962 984
e 962 985
e 962 986
e 962 987
e 962 988
e 962 989
e 962 990
e 962 991
e 962 992
e 962 993
e 962 994
e 962 995
e 962 996
e 962 997
e 962 998
e 962 999
e 962 1000
e 962 1001
e 962 1002
e 962 1003
e 962 1004
e 962 1005
e 962 1006
e 962 1007
e 962 1008
e 962 1009
e 962 1010
e 962 1011
e 962 1012
e 962 1013
e 962 1014
e 962 1015
e 962 1016
e 962 1017
e 962 1018
e 962 1019
e 962 1020
e 962 1021
e 962 1022
e 962 1023
e 962 1024
e 962 1025
e 962 1026
e 962 1027
e 962 1028
